name:g11
items:30
745	541
301	344
294	413
341	266
388	543
701	367
707	526
706	286
289	614
592	348
431	673
362	475
439	562
638	530
375	609
274	540
634	486
377	272
306	623
714	266
336	341
296	340
479	531
589	571
496	674
497	560
389	509
332	650
285	474
503	419
objects:15
1000,1000
1000,1000
1000,1000
1000,1000
1000,1000
1000,1000
1000,1000
1000,1000
1000,1000
1000,1000
1000,1000
1000,1000
1000,1000
1000,1000
1000,1000
